0234174143105202568911813324526955717168106201211902118710030162122301291381081765422421549113170110226194181155126220627010496736102917718314232124177231804610227207207818569182217111132163873811545281415123166103819910188832413652053332204241441927417130122128249238195145422523323611159198179150243172116175791122251993714621016521858212219237976319322124719118107161188223913641213431673124448200140157121148513717816964120146722212519714216815213419034156127298512322984119361311766214131153504782149206239722096176228533919109158189716427449293221542423520818415816052203551391965921614771861698151751352401862409417324624860180114235